numberOfDrones = 8; % Number of drones
numberOfRechargePoints = 2; % Number of recharge points
numberOfUsersClusters = 24; % Number of user clusters
numberOfHAPSs = 1;
M1 = 100000; % Large enough value
XY = 10;
CellDist = 1000;

% Data
RHAPS = 5;
Ri = [4, 4, 4, 4, 4, 4, 4, 4]; % Coverage radius of drones
Bi = [20, 20, 20, 20, 20, 20, 20, 20]; % Battery capacity of drones
Ci = [2, 2, 2, 2, 2, 2, 2, 2]; % Consumption per unit distance of drones
NUsers = [50, 100, 20, 300, 100, 50, 100, 100, 100, 300, 30, 40, 200, 400, 30, 30, 20, 50, 10, 30, 100, 100, 5, 5]; % Number of users in clusters
UserClusterPosition = [| 2, 1
       | 3, 1
       | 3, 3
       | 4, 1
       | 4, 2
       | 4, 5
       | 4, 6
       | 5, 8
       | 5, 9
       | 5, 10
       | 6, 4
       | 6, 5
       | 6, 8
       | 6, 9
       | 7, 3
       | 7, 4
       | 7, 6
       | 7, 9
       | 8, 3
       | 8, 4
       | 8, 9
       | 8, 10
       | 9, 4
       | 9, 7 |]; % Position of user clusters
